qbf_easy_train/easy_2692_SAT.qdimacs
p cnf 21 47
a 17 13 1 0
e 2 3 4 5 6 7 8 9 10 11 12 14 15 16 18 19 20 21 0
-1 -2 0
1 -2 0
-3 4 -5 0
3 -4 -5 0
-3 -4 5 0
3 4 5 0
-6 7 0
6 7 0
-9 -3 0
-9 8 0
3 -8 9 0
-9 -10 -11 0
9 10 -11 0
-9 10 11 0
9 -10 11 0
13 9 0
13 -12 0
-9 12 -13 0
-14 -11 0
-14 -13 0
11 13 14 0
-7 -14 -15 0
7 14 -15 0
-7 14 15 0
7 -14 15 0
-16 -5 0
-16 15 0
5 -15 16 0
-17 10 0
-17 4 0
-10 -4 17 0
19 17 0
19 -18 0
-17 18 -19 0
16 -19 -20 0
-16 19 -20 0
16 19 20 0
-16 -19 20 0
-2 -20 -21 0
2 20 -21 0
-2 20 21 0
2 -20 21 0
-5 -15 16 -1 0
10 12 -20 19 11 0
10 -11 -19 17 21 -7 -16 -5 0
21 -6 3 -7 17 4 -18 8 0
21 0
