sat_easy_train/easy_2692_SAT.dimacs
p cnf 90 291
1 -2 -3 0
-1 2 -3 0
1 2 3 0
-1 -2 3 0
-6 -4 0
-6 -5 0
4 5 6 0
-3 6 -7 0
3 -6 -7 0
-3 -6 7 0
3 6 7 0
8 -5 0
8 1 0
5 -1 -8 0
9 -6 0
9 8 0
6 -8 -9 0
-10 -7 0
-10 -9 0
7 9 10 0
14 -13 0
14 5 0
13 -5 -14 0
-15 3 0
-15 14 0
-3 -14 15 0
-12 15 -16 0
12 -15 -16 0
-12 -15 16 0
12 15 16 0
11 16 -17 0
-11 -16 -17 0
11 -16 17 0
-11 16 17 0
10 17 -18 0
-10 -17 -18 0
10 -17 18 0
-10 17 18 0
20 19 0
20 4 0
-19 -4 -20 0
4 -20 -21 0
-4 20 -21 0
4 20 21 0
-4 -20 21 0
22 13 -23 0
-22 -13 -23 0
22 -13 23 0
-22 13 23 0
-24 21 0
-24 -23 0
-21 23 24 0
-15 14 -25 0
15 -14 -25 0
-15 -14 25 0
15 14 25 0
24 -25 -26 0
-24 25 -26 0
24 25 26 0
-24 -25 26 0
-4 14 -27 0
4 -14 -27 0
-4 -14 27 0
4 14 27 0
28 3 0
28 27 0
-3 -27 -28 0
29 28 0
29 -3 0
-28 3 -29 0
31 -12 0
31 30 0
12 -30 -31 0
-9 31 -32 0
9 -31 -32 0
-9 -31 32 0
9 31 32 0
-33 29 0
-33 -32 0
-29 32 33 0
4 -34 -35 0
-4 34 -35 0
4 34 35 0
-4 -34 35 0
-36 23 0
-36 -30 0
-23 30 36 0
-37 -35 0
-37 36 0
35 -36 37 0
-38 19 0
-38 37 0
-19 -37 38 0
5 -7 -39 0
-5 7 -39 0
5 7 39 0
-5 -7 39 0
-40 -38 0
-40 39 0
38 -39 40 0
41 33 0
41 -40 0
-33 40 -41 0
-22 -13 -42 0
22 13 -42 0
-22 13 42 0
22 -13 42 0
43 42 0
43 13 0
-42 -13 -43 0
44 43 0
44 12 0
-43 -12 -44 0
45 42 -46 0
-45 -42 -46 0
45 -42 46 0
-45 42 46 0
47 -46 0
47 46 0
48 -35 0
48 -47 0
35 47 -48 0
49 -31 0
49 23 0
31 -23 -49 0
48 49 -50 0
-48 -49 -50 0
48 -49 50 0
-48 49 50 0
44 50 -51 0
-44 -50 -51 0
44 -50 51 0
-44 50 51 0
-52 -12 -53 0
52 12 -53 0
-52 12 53 0
52 -12 53 0
54 -21 0
54 53 0
21 -53 -54 0
-51 -54 -55 0
51 54 -55 0
-51 54 55 0
51 -54 55 0
56 34 0
56 -20 0
-34 20 -56 0
57 55 0
57 -56 0
-55 56 -57 0
41 -57 -58 0
-41 57 -58 0
41 57 58 0
-41 -57 58 0
-26 58 -59 0
26 -58 -59 0
-26 -58 59 0
26 58 59 0
60 18 0
60 59 0
-18 -59 -60 0
61 36 0
61 -19 0
-36 19 -61 0
62 -9 0
62 -47 0
9 47 -62 0
-20 -13 -63 0
20 13 -63 0
-20 13 63 0
20 -13 63 0
43 -63 -64 0
-43 63 -64 0
43 63 64 0
-43 -63 64 0
-65 62 0
-65 64 0
-62 -64 65 0
67 66 0
67 -47 0
-66 47 -67 0
68 63 0
68 -8 0
-63 8 -68 0
-69 -16 0
-69 -68 0
16 68 69 0
-67 69 -70 0
67 -69 -70 0
-67 -69 70 0
67 69 70 0
-7 -70 -71 0
7 70 -71 0
-7 70 71 0
7 -70 71 0
72 -71 0
72 -21 0
71 21 -72 0
-73 65 0
-73 72 0
-65 -72 73 0
-61 -73 -74 0
61 73 -74 0
-61 73 74 0
61 -73 74 0
-75 60 0
-75 -74 0
-60 74 75 0
78 76 0
78 77 0
-76 -77 -78 0
78 52 -79 0
-78 -52 -79 0
78 -52 79 0
-78 52 79 0
80 -21 0
80 -79 0
21 79 -80 0
81 42 0
81 80 0
-42 -80 -81 0
-67 81 -82 0
67 -81 -82 0
-67 -81 82 0
67 81 82 0
-76 8 -83 0
76 -8 -83 0
-76 -8 83 0
76 8 83 0
-84 34 0
-84 6 0
-34 -6 84 0
85 -67 0
85 52 0
67 -52 -85 0
85 21 -86 0
-85 -21 -86 0
85 -21 86 0
-85 21 86 0
-87 84 0
-87 -86 0
-84 86 87 0
83 87 -88 0
-83 -87 -88 0
83 -87 88 0
-83 87 88 0
-89 -82 0
-89 88 0
82 -88 89 0
-90 -75 0
-90 -89 0
75 89 90 0
57 34 -82 84 -77 0
-52 -40 -87 0
70 80 0
23 -49 -13 0
8 -87 9 -32 0
58 50 87 -77 0
-29 79 0
-12 57 87 -50 0
37 78 -83 -61 39 0
-30 -38 57 -45 49 61 0
36 -23 38 -86 0
-18 80 -28 3 -19 0
13 -68 46 67 62 0
75 46 -77 -25 -42 72 0
73 58 12 0
80 25 -39 16 -8 0
-88 -44 -26 22 0
-41 57 0
-50 -37 0
36 -33 0
43 -71 58 78 50 -29 0
32 24 42 -53 0
-67 -53 40 38 13 -89 0
7 -50 -18 -58 0
12 -46 80 0
-46 -69 75 45 0
22 29 0
19 0
-14 77 24 7 18 81 0
83 -45 68 0
-28 -44 -30 64 51 0
-67 34 31 0
-40 -83 -77 -87 80 0
-85 60 74 -83 0
-56 15 -24 -26 0
68 -49 0
5 -78 27 6 48 0
-36 -24 -21 40 -12 0
90 0
